1000
150 150
1 105 116
2 105 306
3 105 517
4 105 879
5 105 252
6 105 531
7 105 806
8 105 945
9 105 167
10 105 418
11 105 369
12 104 760
13 104 862
14 104 708
15 104 477
16 104 184
17 104 401
18 104 515
19 104 849
20 104 413
21 104 301
22 104 626
23 104 219
24 103 221
25 103 817
26 103 693
27 103 514
28 103 156
29 103 822
30 103 659
31 103 834
32 103 463
33 103 558
34 103 812
35 103 827
36 103 266
37 102 748
38 102 813
39 102 222
40 102 271
41 102 492
42 102 111
43 102 23
44 102 956
45 102 457
46 102 163
47 102 357
48 101 81
49 101 710
50 101 567
51 101 645
52 101 85
53 101 391
54 101 339
55 101 77
56 101 696
57 101 461
58 101 230
59 101 393
60 101 17
61 101 531
62 101 911
63 100 954
64 100 334
65 100 210
66 100 903
67 100 226
68 100 164
69 100 81
70 100 675
71 100 940
72 100 677
73 100 18
74 100 747
75 100 406
76 100 976
77 100 79
78 100 410
79 99 960
80 99 759
81 99 697
82 99 93
83 99 752
84 99 208
85 99 902
86 99 79
87 99 727
88 99 77
89 99 447
90 99 571
91 98 628
92 98 539
93 98 109
94 98 411
95 98 559
96 98 663
97 98 347
98 98 652
99 97 636
100 97 840
101 97 616
102 97 608
103 97 665
104 97 441
105 97 132
106 97 861
107 97 116
108 96 253
109 96 520
110 96 60
111 96 715
112 96 496
113 96 210
114 96 441
115 96 80
116 96 948
117 96 59
118 96 758
119 96 947
120 95 955
121 95 54
122 95 859
123 95 214
124 95 854
125 95 695
126 95 132
127 95 473
128 95 666
129 95 238
130 95 608
131 95 864
132 94 371
133 94 761
134 94 146
135 94 387
136 94 880
137 94 790
138 94 1000
139 94 732
140 94 470
141 94 405
142 94 127
143 94 841
144 94 205
145 93 982
146 93 117
147 93 908
148 93 920
149 93 347
150 93 743
151 93 256
152 93 796
153 93 976
154 93 792
155 93 117
156 93 366
157 93 74
158 93 728
159 93 144
160 92 187
161 92 887
162 92 350
163 92 538
164 92 439
165 92 306
166 92 292
167 92 392
168 92 119
169 92 566
170 92 285
171 92 38
172 92 389
173 91 690
174 91 901
175 91 353
176 91 748
177 91 259
178 91 500
179 91 790
180 90 938
181 90 669
182 90 211
183 90 961
184 90 748
185 90 594
186 90 573
187 90 869
188 90 764
189 90 719
190 90 578
191 90 417
192 90 911
193 90 575
194 90 978
195 90 320
196 89 272
197 89 526
198 89 425
199 89 168
200 89 191
201 89 383
202 89 28
203 89 121
204 89 823
205 89 403
206 89 168
207 89 322
208 89 918
209 89 187
210 89 689
211 89 417
212 89 546
213 89 673
214 89 541
215 89 936
216 89 609
217 88 268
218 88 102
219 88 235
220 88 224
221 88 814
222 88 582
223 88 323
224 88 78
225 88 520
226 88 192
227 88 205
228 88 495
229 88 328
230 87 187
231 87 705
232 87 942
233 87 189
234 87 56
235 87 739
236 87 64
237 87 139
238 87 875
239 87 61
240 87 706
241 86 392
242 86 294
243 86 863
244 86 813
245 86 435
246 86 666
247 86 10
248 86 852
249 86 591
250 86 647
251 85 422
252 85 263
253 85 96
254 85 316
255 85 651
256 85 192
257 85 468
258 85 290
259 85 663
260 85 190
261 85 57
262 85 572
263 85 78
264 85 611
265 85 509
266 85 107
267 85 158
268 85 78
269 84 557
270 84 526
271 84 859
272 84 364
273 84 396
274 84 81
275 84 464
276 84 596
277 84 685
278 83 270
279 83 20
280 83 465
281 83 398
282 83 346
283 83 531
284 83 878
285 83 284
286 83 925
287 83 413
288 83 404
289 82 383
290 82 567
291 82 96
292 82 387
293 82 955
294 82 589
295 82 416
296 82 237
297 82 32
298 82 664
299 82 433
300 82 871
301 82 20
302 82 907
303 82 41
304 81 965
305 81 151
306 81 68
307 81 444
308 81 317
309 80 219
310 80 828
311 80 137
312 80 912
313 80 109
314 80 490
315 80 740
316 80 431
317 80 661
318 79 339
319 79 776
320 79 641
321 79 606
322 79 57
323 79 599
324 79 965
325 78 801
326 78 350
327 78 298
328 78 477
329 78 209
330 78 628
331 78 29
332 78 829
333 78 699
334 78 836
335 78 556
336 78 145
337 78 818
338 78 971
339 78 407
340 78 320
341 78 967
342 78 607
343 78 251
344 77 277
345 77 124
346 77 230
347 77 632
348 77 458
349 77 965
350 77 966
351 77 92
352 77 249
353 77 310
354 77 493
355 77 953
356 77 665
357 77 377
358 77 158
359 77 265
360 76 183
361 76 529
362 76 530
363 76 718
364 76 178
365 76 755
366 76 50
367 76 539
368 76 614
369 76 419
370 76 910
371 76 300
372 76 505
373 76 26
374 76 288
375 75 293
376 75 890
377 75 773
378 75 972
379 75 742
380 75 748
381 75 704
382 75 293
383 75 568
384 75 0
385 75 32
386 75 22
387 75 215
388 75 892
389 74 116
390 74 203
391 74 786
392 74 582
393 74 683
394 74 204
395 74 658
396 74 464
397 74 651
398 74 148
399 74 118
400 74 528
401 74 335
402 74 618
403 73 621
404 73 844
405 73 930
406 73 438
407 73 182
408 73 622
409 73 54
410 72 654
411 72 963
412 72 941
413 72 987
414 72 229
415 72 727
416 72 1000
417 72 932
418 72 337
419 72 529
420 72 496
421 72 904
422 72 128
423 72 162
424 72 551
425 72 379
426 72 429
427 72 608
428 72 715
429 71 951
430 71 16
431 71 0
432 71 254
433 71 525
434 71 449
435 71 313
436 71 629
437 71 818
438 71 312
439 71 74
440 70 448
441 70 334
442 70 439
443 70 360
444 70 503
445 70 836
446 70 907
447 70 210
448 70 599
449 70 867
450 70 395
451 70 937
452 70 293
453 70 184
454 70 406
455 70 188
456 70 983
457 70 199
458 69 159
459 69 854
460 69 630
461 69 707
462 69 343
463 69 38
464 69 367
465 69 133
466 69 60
467 69 598
468 68 717
469 68 884
470 68 930
471 68 937
472 68 429
473 68 289
474 68 686
475 68 356
476 68 153
477 68 95
478 68 972
479 68 485
480 68 867
481 68 798
482 68 412
483 68 999
484 68 596
485 68 646
486 67 277
487 67 275
488 67 46
489 67 283
490 67 585
491 67 546
492 67 56
493 67 505
494 67 188
495 67 829
496 67 24
497 67 826
498 67 154
499 67 299
500 67 578
501 67 763
502 66 45
503 66 679
504 66 591
505 66 59
506 66 540
507 66 473
508 66 217
509 66 9
510 66 425
511 65 389
512 65 948
513 65 844
514 65 533
515 65 274
516 65 84
517 65 350
518 65 316
519 65 221
520 65 277
521 65 400
522 65 529
523 65 559
524 65 486
525 64 597
526 64 854
527 64 871
528 64 398
529 64 343
530 64 980
531 64 780
532 64 287
533 64 104
534 64 421
535 64 482
536 64 28
537 64 491
538 63 847
539 63 381
540 63 593
541 63 741
542 63 934
543 63 84
544 63 726
545 63 968
546 63 900
547 63 970
548 63 99
549 63 941
550 63 938
551 63 292
552 63 405
553 63 238
554 63 717
555 62 182
556 62 879
557 62 706
558 62 138
559 62 243
560 62 962
561 62 388
562 62 757
563 62 394
564 62 689
565 62 852
566 62 202
567 62 79
568 61 24
569 61 339
570 61 209
571 61 369
572 61 467
573 61 651
574 61 823
575 61 914
576 61 319
577 60 757
578 60 386
579 60 967
580 60 928
581 60 82
582 60 44
583 60 817
584 60 918
585 60 207
586 60 268
587 60 920
588 60 890
589 59 122
590 59 857
591 59 412
592 59 737
593 59 607
594 59 248
595 58 956
596 58 826
597 58 902
598 58 551
599 58 36
600 58 158
601 58 45
602 58 259
603 58 955
604 57 101
605 57 766
606 57 821
607 57 57
608 57 456
609 57 169
610 57 287
611 57 869
612 57 525
613 57 987
614 57 346
615 56 545
616 56 216
617 56 192
618 56 82
619 56 446
620 56 257
621 56 977
622 56 744
623 56 681
624 56 446
625 56 187
626 56 72
627 56 155
628 56 709
629 56 86
630 55 29
631 55 110
632 55 585
633 55 4
634 55 420
635 55 574
636 55 489
637 55 490
638 55 961
639 55 30
640 55 756
641 55 473
642 55 245
643 55 402
644 55 20
645 55 477
646 54 444
647 54 762
648 54 363
649 54 85
650 54 39
651 54 838
652 54 470
653 54 898
654 54 157
655 54 653
656 54 914
657 54 334
658 54 421
659 53 38
660 53 827
661 53 3
662 53 848
663 53 820
664 53 799
665 53 251
666 53 508
667 53 895
668 53 24
669 53 761
670 53 351
671 53 334
672 53 435
673 53 541
674 53 899
675 53 76
676 52 582
677 52 456
678 52 940
679 52 102
680 52 797
681 52 920
682 52 435
683 52 124
684 52 741
685 52 647
686 52 498
687 52 572
688 52 189
689 52 568
690 51 993
691 51 529
692 51 709
693 51 79
694 51 621
695 51 475
696 51 482
697 51 478
698 51 117
699 51 866
700 50 764
701 50 123
702 50 674
703 50 952
704 50 255
705 50 591
706 50 327
707 50 238
708 50 658
709 50 647
710 50 97
711 50 798
712 50 811
713 50 386
714 50 29
715 50 848
716 49 799
717 49 456
718 49 408
719 49 146
720 49 464
721 49 85
722 49 249
723 49 517
724 49 577
725 49 125
726 49 72
727 49 280
728 49 404
729 49 687
730 49 76
731 49 863
732 49 338
733 48 216
734 48 900
735 48 644
736 48 29
737 48 199
738 48 427
739 48 462
740 48 449
741 48 464
742 47 940
743 47 500
744 47 537
745 47 501
746 47 515
747 47 915
748 47 457
749 47 749
750 47 266
751 47 302
752 47 520
753 47 8
754 46 806
755 46 774
756 46 395
757 46 600
758 46 745
759 46 948
760 46 980
761 46 8
762 46 772
763 46 506
764 46 927
765 46 958
766 46 620
767 45 336
768 45 906
769 45 167
770 45 902
771 45 679
772 45 250
773 45 887
774 45 907
775 45 739
776 45 602
777 45 292
778 45 795
779 45 205
780 45 970
781 45 800
782 45 580
783 45 747
784 45 182
785 45 600
786 44 645
787 44 998
788 44 312
789 44 220
790 44 736
791 44 736
792 44 139
793 44 627
794 44 357
795 44 600
796 44 575
797 44 788
798 43 548
799 43 19
800 43 496
801 43 491
802 43 872
803 43 40
804 43 645
805 43 909
806 43 777
807 43 508
808 43 847
809 43 103
810 43 342
811 43 976
812 43 402
813 43 215
814 43 579
815 42 91
816 42 806
817 42 37
818 42 584
819 42 136
820 42 649
821 42 189
822 42 34
823 42 120
824 42 412
825 41 255
826 41 694
827 41 548
828 41 561
829 41 702
830 41 673
831 41 785
832 41 234
833 41 151
834 41 213
835 40 441
836 40 85
837 40 568
838 40 282
839 40 127
840 40 471
841 40 311
842 40 545
843 40 124
844 40 758
845 40 728
846 40 26
847 40 458
848 40 611
849 39 492
850 39 780
851 39 352
852 39 229
853 39 940
854 39 436
855 39 751
856 39 310
857 39 340
858 39 649
859 39 197
860 39 89
861 39 332
862 39 264
863 39 598
864 39 42
865 39 687
866 39 355
867 39 92
868 38 684
869 38 971
870 38 825
871 38 625
872 38 830
873 38 354
874 38 857
875 38 397
876 38 179
877 38 281
878 38 334
879 38 410
880 38 108
881 37 680
882 37 318
883 37 251
884 37 484
885 37 244
886 37 129
887 37 699
888 37 193
889 37 937
890 37 162
891 37 694
892 37 31
893 37 319
894 37 302
895 37 157
896 37 565
897 37 52
898 36 170
899 36 897
900 36 64
901 36 373
902 36 463
903 36 658
904 36 887
905 36 958
906 36 804
907 36 373
908 36 139
909 36 83
910 36 945
911 36 993
912 36 158
913 36 887
914 36 719
915 36 420
916 35 216
917 35 770
918 35 2
919 35 75
920 35 215
921 35 152
922 35 578
923 35 944
924 35 713
925 35 273
926 35 423
927 35 179
928 35 670
929 35 206
930 35 559
931 35 850
932 35 247
933 34 739
934 34 246
935 34 277
936 34 455
937 34 251
938 34 413
939 34 838
940 34 340
941 34 643
942 34 765
943 34 533
944 33 910
945 33 956
946 33 276
947 33 505
948 33 376
949 33 782
950 33 171
951 33 47
952 33 840
953 33 474
954 33 280
955 33 602
956 33 33
957 33 733
958 33 804
959 33 994
960 33 134
961 33 860
962 33 416
963 33 431
964 33 821
965 33 993
966 33 889
967 32 579
968 32 277
969 32 497
970 32 330
971 32 332
972 32 863
973 32 790
974 32 374
975 31 861
976 31 299
977 31 248
978 31 856
979 31 714
980 31 806
981 31 984
982 31 882
983 31 970
984 31 819
985 30 548
986 30 48
987 30 237
988 30 176
989 30 743
990 30 365
991 30 414
992 30 635
993 30 749
994 30 18
995 30 280
996 30 575
997 30 883
998 30 556
999 30 628
1000 30 208
